
 102   30
  10   10   10   10   10   10   10   10   10   10   10   10   10   10   10   10   10   10   10   10   10   10   10   10   10   10   10   10   10   10

   0   0   0   0   0   0   0   0   0   0   0   0   0   0   0   0   0   0   0   0   0   0   0   0   0   0   0   0   0   0   0  31 2 3 4 5 6 7 8 9 10 11 12 14 15 16 17 18 19 20 21 22 23 24 25 26 27 29 30 36 38 39 47 
   7   0   0   0   0   0   0   0   0   0   0   0   0   0   0   0   0   0   0   1   2   0   0   0   1   0   0   0   0   0   0   9 99 98 67 65 57 54 32 31 13 
  10   0   1   0   0   2   0   0   0   0   0   0   0   0   1   0   1   0   0   0   0   0   0   0   0   0   4   0   0   0   0  23 101 99 98 97 93 76 75 74 69 66 65 63 59 58 55 54 51 50 49 48 46 45 44 
   3   4   0   0   0   6   4   0   0   0   1   0   0   0   0   0   0   1   0   0   6   0   0   0   0   0   4   0   0   0   0  21 101 99 98 97 94 75 74 69 67 66 65 64 63 58 57 55 54 52 50 48 42 
   8   0   0   0   0   0   0   2   0   0   0   0   2   0   0   0   0   0   0   0   0   0   0   0   0   0   0   0   0   0   0  18 101 98 97 93 76 73 69 66 63 60 58 51 50 48 46 45 44 34 
   9   4   8   1   0   0   0   0   0   0   0   0   0   0   0   0   0   0   0   0   0   0   0   1   6   0   0   0   0   3   0  16 101 100 99 97 74 73 68 63 60 58 56 50 48 44 41 35 
   1   0   0   0   1   0   0   0   0   0   0   0   0   0   0   0   0   0   0   0   0   0   0   0   6   0   0   0   0   0   0  19 100 96 95 76 75 74 69 64 63 62 56 55 54 52 51 48 45 43 40 
   1   0   8   0   0   0   0   0   0   0   0   0   0   0   0   0   0   0   0   5   4   0   3   6   0   0   0   0   0   0   0  13 98 96 95 76 75 66 64 56 51 46 45 34 33 
   5   0   0   0   5   0   0   0   0   0   0   0   0   0   0   0   0   0   0   0   0   0   0   0   0   0   0   0   0   0   0  16 100 97 96 74 73 69 68 64 62 60 56 51 48 46 44 37 
   4   0   0   0   0   0   0   0   0   0   0   0   7   0   0   2   0   0   0   0   0   0   0   0   0   0   5   0   0   0   0  12 100 99 98 94 69 65 61 60 51 46 33 31 
   1   0   0   0   0   0   0   6   0   0   0   0   0   0   0   0   7   0   0   0   0   0   0   7   0   0   0   0   0   0   0  18 99 97 96 94 92 76 75 74 67 66 64 62 61 59 55 51 48 43 
   7   0   0   0   0   0   0   0   0   0   0   0   8   0   0   0   0   0   3   0   0   0   0   0   0   1   0   1   2   0   0  14 100 99 96 95 89 68 63 61 60 57 55 51 49 33 
   5   7   0   0   7   0   0   0   0   0   0   0   0   0   0   0   0   0   0   5   0   0   0   0   0   0   0   0   0   0   1  16 97 94 90 87 76 75 74 73 69 64 62 59 51 49 48 42 
   7   0   2   0   0   0   0   0   0   0   0   0   0   1   0   0   0   7   0   0   7   0   5   0   0   0   0   0   0   0   0  15 100 96 95 94 68 66 63 62 56 55 54 51 48 46 43 
  10   0   0   0   0   0   0   0   0   1   4   0   7   0   0   0   0   0   0   0   0   2   0   0   8   0   0   0   0   0   0   9 99 97 75 74 72 65 63 55 28 
   2   0   0   8   0   0   0   0   0   0   0   0   0   0   0   0   0   2   0   6   0   0   0   0   9   0   0   0   0   0   0  20 100 99 98 97 95 94 92 87 83 76 69 68 64 62 60 58 57 54 51 48 
   4   0   0   0   0   0   0   0   0   0   0   0   0   0   0   4   0   7   0   0   0   3   0   0   0   0   0   0   0   0   0  14 100 98 97 96 93 89 68 63 62 61 60 56 46 44 
   9  10   0   7   0   0   0   0   0   8   7   0   0   0   6   6   7   0   0   0   0   0   0   8   0   0   5   0   0   0   2   9 99 95 90 75 62 61 59 46 35 
   9   0   0   5   0   0   0   0   0   0   0   0   2   0   0   0   5   0   6   0   0   0   0   0   0   0   0   6   0   0   0  17 100 97 96 95 94 91 87 83 74 73 68 67 66 64 63 57 51 
   1   0   0   0   0   0   0   0   0   0   0   0   0   0   0   0   0   7   0   7   0   0   0   9   0   0   0   0   0   0   0  13 100 99 94 93 92 72 68 59 57 53 51 50 48 
   5   0   0   0   0   0   3   0   0   0   0   0   2   5   3   0   3   8   0   0   0   0   0   5   0   0   0   0   0   0   0  19 99 96 95 94 92 88 87 85 83 81 74 73 72 71 69 67 65 62 54 
  10   0   0   0   0   0   0   0   0   0   0   0   0   0   0   0   0   0   0   0   0   0   0   0   0   0   8   0   0   0   0  16 98 96 95 94 93 92 84 69 68 67 66 65 59 57 54 51 
   6   0   0   8   0   0   0   0   0   0   0   0   5   0   0   0   0   0   0   0   0   0   0   0   0   9   0   0   0   0   0  12 95 94 92 87 82 75 73 66 60 56 48 43 
   5   0   0   0   0  10   0   0   0   0   0   0   0   0   0   0   0   0  10   0   0   0   6   0   0   0   5   6   0   0   0  11 101 100 95 94 88 71 59 57 55 53 50 
   4   0   0   0   0   0   0   0   0   0   0   0   0   0   0   0   0   0   0   0   0   0   0   0   0   0   0   0   4   3   0  10 98 97 94 88 81 73 59 54 50 46 
   8   0   0   0   0   0   0   0   0   0   0   0   0   0   0   5   0   0   0   0   0   0   5   0   9   0   0   0   0   0   0  18 101 99 95 94 92 91 90 89 84 83 75 71 69 67 66 60 57 52 
   8   4   0   0   0   0   0   8   0   0   0   0   9   0   0   0   0   0   6   0   0   0   0   0   0   0   0   0   0   0   0  13 99 93 87 73 71 69 68 67 62 59 57 53 48 
   7   0   0   0   0   0   5   0   0   0   0   0   0   0   0   0   0   0   0   0   0   0   4   0   0   0   0   0   0   0   0  12 95 94 93 90 82 73 69 68 59 57 50 48 
   8   0   5   0   0   0   0   0   0   0   0   0   0   0   0   4   0   0   0   0   0   0   0   0   0   0   0   6   0   0   0  18 98 97 96 95 94 93 92 90 88 85 83 79 75 72 70 68 67 55 
   7   0   0   0   0   0   0   0   0   0   0   0   0   0   0   0   0   0   0   0   0   0   0   0   0   0   0   0   0   0   8  13 99 98 97 94 93 92 84 76 72 68 59 57 54 
   8   0   0   0   0   0   0   6   0   0   0   0   0   0   0   6   0   0   6   0   0   0   0   0   0   0   0   0   0   0   0  14 95 93 92 90 88 87 85 73 72 71 68 62 59 58 
   8   6   0   0   0   0   0   0   0   0   0   1   0   0   0   9   0   0   0   0   0   0   0   8   5   0   5   0   0   0   0  10 97 94 93 92 88 85 83 66 55 50 
   1   0   0   0   0   0   0   0   0   0   0   7   0   5   5   0   0   0   0   0   0   0   0   0   0   0   0   0   0   0   0  12 97 93 91 90 87 86 82 74 73 67 59 48 
   8   0   0   0   0   0  10   0   0   0   0   0   0   0   0   0   0   4   0   0   5   0   0   0   0   0   0   0   0   0   0  12 100 99 94 92 91 87 84 81 71 59 57 54 
   6   0   0   0   6   4   0   0   0   8   9   0   0   0   0   0   0   0   0   0   0   5   8   0   0   0   0   0   0   0   0  11 98 96 94 93 92 89 87 83 67 57 51 
   1   3   0   0   0   8   0   0   0   0   8   0   0   0   0   0   0   0   3   0   0   0   0   6   0   0   0   0   0   0   0  10 95 93 92 91 90 87 83 57 51 48 
   6   0   0   0   0   0   0   0   0   0   0   0   0   0   0   0   0   0   0   0   0   0   0   0   5   0   0   0   0   8   0  13 99 95 94 93 89 88 87 86 82 80 71 63 59 
   3   0   6   0   0   0   0   0   0   0   0   0   0   7   0   0   7   0   0   0   0   0   0   0   4   0   0   7   0   0   0  12 97 92 89 88 87 84 82 71 68 67 59 57 
   1   6   0   0   0   0   0   8   0   0   0   0   0   0   0   0   0   0   0   0   0   7   0   0   0   0   0   0   0   0   0  11 96 93 91 90 89 86 83 76 72 71 48 
   2   0   0   0   0   0   0   0   1   0   0   0  10   0   0   0   0   0   0   8   0   0   0   0   0   0   0   0   0   0   0  11 98 94 92 91 89 88 86 85 68 67 59 
   3   0   0   0   4   0   0   0   0   0   0   0   0   9   0   0   0   0   0   0   9   0   0   0   0   0   0   0   0   0   0  11 96 89 87 84 82 81 80 72 71 69 59 
   9   0   0   0   6   0   0   5   0   0   0   0   0   0   6   0   0   0   0   0   0   0   0   0   0   0   0   0   0   0   0  10 100 95 88 85 84 83 71 70 68 60 
   2   6   8   0   0   0   0   0   0   0   0   0   7   0   0   5   0   0   0   0   0   0   0   0   0   0   0   0   0   4   0  13 98 93 91 90 89 88 86 85 83 81 79 72 70 
   1   0   0   0   7   0   0   0   0   4   0   0   0   7   0   0   0   6   0   0   0   0   0   0   0   0   0   0   0   0   0  10 95 92 90 88 87 82 81 79 70 67 
   4   0   0   0   0   0   0   0   0   0   0   0   0   0   0   0   0   0   0   0   0   0   0   0   0   0   0   0   0   2   0  11 94 89 88 87 86 82 81 79 78 72 70 
   8   0   0   0   0   0   7   0   0   0   0   0   0   0   0   0   0  10   0   0   3   0   0   4   0   0   0   5   0   0   0   6 91 87 72 71 70 57 
   5   0   0   0   0   0   0   0   0   0   0   0   0   0   0   0   0   0   0   0   0   0   0   0   0   7   0   0   0   0   0   9 95 94 91 84 83 80 79 78 70 
   5   0   0   0   0   0   0   0   0   0   0   0   0   0   0   0   0   0   0   0   0   0   0   9   0   0   0   0   0   0   0   8 88 85 84 81 80 79 78 70 
   7   0   0   0  10   0  10   0   0   0   0   0   0   0   0   0   0   0   0   0   0   4   0   0   0   0   0   0   8   0   0   7 92 84 83 82 80 71 70 
   1   0   0   0   0   0   0   0   0   0   5   0   0   0   0   0  10   0   6   0   0   0   6   0   0   0   0   0   0   0   0   6 96 89 87 79 77 62 
   4   0   0   0   0   0   0   0   0   0   0   0   0   5   0   0   0   0   0   0   0   0   0   0   0   3   0   7   0   0   8   6 88 86 82 81 71 70 
   5   0   0   0   0   0   0   0   0   8   0   0   3   0   0   0   0   0   0   0   0   0   0   0   0   0  10   0   0   0   0   7 87 86 85 82 79 78 77 
   6   0   0   0   0   0   0   0   5   0   0   0   0   0   0   0   0   0   4   0   0   0   0   0   0   0   0   0   7  10   0   6 90 89 85 82 81 78 
   7   0   0   0   0   0   7   0   0   0   0   0   0   0   0   0   4   0   0   0   0   0   0   0   0   0   0   0   0   0   0   5 90 86 82 79 70 
   5   0   0   0   0   0   0   0   0   0   0   0   0   0   0   0   0   6   0   8   0  10   0   0   0   0   0   0   0   0   0   5 87 82 80 77 73 
   4   0   7   0   0   0   0   0   0   0   0   0   0   0   0   9   0   0   0   0   0   0   0   0   0   0   0   0   0   8   0   5 91 83 80 77 71 
  10   0   0   0   0   0   0   0   0   0   0   0   0   0   9   0   0   0   0   0   0   6   0   0   0   7   0   0   0   0   0   5 86 85 80 79 77 
   8   6   0   0   0   0   0   0   0   4   0   0   0   7   0   0   0   0   8   0   0   3   0   0   0   0   0   6   0   0   0   4 84 80 79 70 
   7   5   0   0   0   0   0   6   0   0   0   0   0   0   0   0   0   0   0   0   8   0   0   0   0   0   7   0   0   0   0   3 83 79 70 
   8   0   0   0   5   5   0   9   0   0   0   5   0   0   0   0   0   0   0   0   0   0   0   0   0   0   0   0   0   0   0   3 80 79 72 
  10   9   0   7   0   0   0   0   0   0   0   0   0   0   0  10   0   0   0   0   0   0   0   0   8   0   0   0   0   0   0   3 80 79 70 
   3   0   0   0   0   9   0   0   0   0   4   0   0   0   0   0   0   0   0   0   0   9   0   0   0   0   0   0   0  10   0   3 91 84 78 
   2   0   0   0   0   0   0   0   0   0   0   0   0   0   0   0   0   0   0   0   0   0   0   0   0   3   0   0   8   0   8   3 92 90 81 
   5   0   0   0   0   5   0   8   0   0   0   0   0   0   0   0   4   0   7   0   0   0   0   6   0   0   0   0   0   0   0   3 93 89 82 
   2   0   0   0   0   0   0   0   0   0   9   4   0   0   7   0   0   0   0   0   6   0   0   0   0   0   0   0   7   0   0   3 89 80 78 
   5   0   6   0   0   0   0   0   0   0   0   0   0   0   0   0   0   0   0   0   0   0   0   0   0   0   0   0   0   0   0   2 79 70 
   8   0   0   0   0   0   0   0   0   0   0   0   0   0   0   0   0   0   0   0   0   0   0   7   0   0   0   0   0   8   0   2 80 78 
   2   0   0   0   0   0   0   4   0   0   0   0   0   0   0   0   6   0   0   7   7   0   0   0   8   0   0   0   0   0   0   2 81 77 
   3   0   9   0   0   0   0   0   0   0   0   0   0   0   0   0   8   0   0   0   0   0   0   0   0   0   0   5   0   0   0   2 79 78 
   1   0   0   0   0   0   8   0   0   0   0   0   0   0   0   0   0   0   0   0   5   0   0   0   0   0   8   0   0   0   0   1 77 
   5   0   0   0   9   5   0   0   0   0   0   5   0   0   0   0   0   5   4   0   0   0   0   0   0   0   0   0   0   4   0   1 78 
   9   0   5   0   8   0   0   0   0   0   0   0   0   8   5   0   0   9   3   0   0   0   0   0   0   0   0   0   0   9   0   1 77 
   4   0   0   0   0   0   0   0   0   0   0   0   0   0   0   5   0   0   0   0   0   0   0   0   0   0   0   0   0   0   8   1 84 
   9  10   0   0   0   0   0   0   6   0   7   0   0   0   0   0   0   0   0   0   0   0   0   0   0   9   0   0   0   0   0   1 78 
  10   3   0   0   0   0   3  10   0   0   0   0   0   0   0   0   0   0   7   0   0   0   0   0   0   0   0   0   0   0   0   1 77 
   3   0   0   0   0   0   0   0   0   0   0   0   0   0   0   0   6   0   0   0   0   0   0   6   0   0   0   0   0   0   5   1 78 
   6   0   0   0   0   0   0   0   0   0   0   0   0   0   0   0   0   0   0   0  10   0   0   0   0   0   0   0   0   6   0   1 102
   2   0   0   7   0   0   0   0   0   8   0   0   0   0   0   0  10   0   0   0   0   0   0   0   0   0   0   0   0   0   0   1 102
   6   3   0   0   0   7   0   0   0   0   0   0   0   0   0   0   0   0   0   0   0   0   0   0   0   0   0   0   0   0   0   1 102
   7   0   0   0   3   0   4   0   0   0   0   0   0   0   0   0   0   0   0   0   0   0   0   9   0   0   0   0   0   0   0   1 102
   6   0   0   0   0   0   0   0   0   0   0   0   0   0   6   0   0   0  10   0   0   0   0   0   0   0   0   0   5   0   0   1 102
   7   0   0   0   7   0   0   0   0   0   0   0   0   0   0   0   0   0   0   0   0   0   0   0   0   0   0   0   0   0   0   1 102
   2   7   0   0   6   0   7   5   0   0   0   0   0   0   0   0   0   0   0   0   0   0   0   0   0   0   0   0   0   0   0   1 102
   1   0   0   0   0   6   0   0   0   7   0   0   0   0   0   0   5   5   0   0   0   4   0   0   0   0   5   9   0   0   6   1 102
   1   0   0   0   0   0   7   3   0   0   0   0   0   0   0   0   0   0   0   0   0   0   0   2   5   0   0   0   0   2   0   1 102
   2   9   0   0   0   0   0   0   0   0   0   0   0   0   0   0   0   5   0   0   0   0   0   0   0   8   0   0   0   6   0   1 102
   4   0   0   0   0   0   0   0   8   0   0   0   9   0   0   0   0   5   0   0   0   0   0   8   0   7   5   0   0   0   0   1 102
   5   0   0   0   0   0   0   0   0   0   0   0   8   0   0   0   0   0   5   6   0   0   0   0   0   0   0   0  10   0   0   1 102
   1   0   0   0   0   0   4   0   0   0   0   7   0   0   0   0   0   0   0   0   0  10  10   0   0   0   0   0   0   0   0   1 102
   2   0   0   0   0   0   0   7   7   0   0   0   0   0   0   0   0   0   0   0   3  10   0   0   0   0   5   0   0   0   8   1 102
   8   0   0   0  10   0   0   0   0   0   0   0   0   0   0   0   0   0   0   0   0   0   0   0   0   0   0   0   0   5   0   1 102
   6   0   0   0   0   0   4   0   0   0   0   0   0   0   0   0   0  10   0   0   0   0   0   0   5   0   0   5   0   0   0   1 102
   6   0   0   0   0   0   0   0   5   0   0   0   5   0   0   0   0   0   0   0   0   0   0   3   0   0   0   0   0   0   0   1 102
   2   7   0   0   0   0   0   0   0   0   0   0   0   6   9   0   4   0   0   0   0   0   0   0   5   0   0   0   0   0   0   1 102
  10   0   0   0   0   0   0   0   0   0   0   7   0   0   0   0   0   0   0   7   0   0   0   0   0   0   0   0   0   7   0   1 102
   9   0   0   0   3   0   0   0   8   0   0   0   0   0   8   4   0   0   0   0   6   5   7   0   0   0   0   6   3   0   0   1 102
   4   0   0   0   0   0   0   0   0   0   0  10   0   0   0   7   0   0   0   0   0   0   0   9   0   0   0   0   0   7   0   1 102
   4   0   6   0   0   0   7   0   0   0   6   8   0   0   4   8   9   0   0   0   9   0   0   3   0   0   0   0   0   0   0   1 102
   7   0   0   0   0   5   0   0   8   0   0   0   0   0   0   6   0   0   0   0   0   0   0   4   0   0   6   9   0   0   0   1 102
   7   0   7   5   0   0   0   0   0   0   0   0   0   0   9   0   0   0   7   0   0   0   0   0   0   0   8   0   0   0   0   1 102
   5   5   0   0   5   0   0   3   0   0   0   0   0   0   0   0   0   5   7   0   0   0   0   0   6   0   0   0   0   0   0   1 102
   0   0   0   0   0   0   0   0   0   0   0   0   0   0   0   0   0   0   0   0   0   0   0   0   0   0   0   0   0   0   0   0 
